1 1335
2 1191
4 1182
5 1076
192 1010



1 1332
2 1184
3 1183
5 1179
9 1159
10 1113
62 1111
71 1082
310 1073
439 1061
631 1053
827 1049



1 1381
2 1238
3 1209
4 1194
5 1191
9 1123
13 1082
35 1062
927 1061



1 1358
2 1277
3 1214
4 1195
8 1184
9 1171
11 1133
25 1113
30 1105
61 1088
99 1077
366 1039



1 1397
2 1211
4 1183
9 1116
14 1075
25 1059
429 1040
901 1031



